25° run output:
{
    "Function": "kroB750.tsp",
    "Problem dimension": [
        455,
        379,
        609,
        223,
        161,
        385,
        631,
        158,
        181,
        265,
        392,
        596,
        695,
        453,
        69,
        283,
        738,
        683,
        70,
        241,
        200,
        174,
        415,
        84,
        335,
        608,
        282,
        739,
        668,
        263,
        509,
        542,
        192,
        148,
        46,
        656,
        348,
        424,
        571,
        368,
        334,
        684,
        628,
        437,
        399,
        90,
        452,
        312,
        594,
        128,
        552,
        184,
        480,
        11,
        269,
        352,
        251,
        313,
        63,
        572,
        353,
        641,
        717,
        519,
        342,
        474,
        271,
        598,
        446,
        704,
        657,
        703,
        625,
        77,
        266,
        652,
        538,
        97,
        745,
        210,
        408,
        37,
        617,
        484,
        27,
        611,
        139,
        109,
        30,
        306,
        688,
        366,
        185,
        377,
        153,
        457,
        537,
        145,
        390,
        32,
        277,
        224,
        655,
        78,
        570,
        440,
        378,
        476,
        616,
        736,
        146,
        82,
        417,
        413,
        604,
        434,
        303,
        568,
        733,
        506,
        530,
        636,
        674,
        239,
        22,
        650,
        325,
        285,
        470,
        75,
        10,
        456,
        120,
        367,
        15,
        155,
        485,
        403,
        87,
        627,
        388,
        418,
        341,
        577,
        523,
        208,
        160,
        213,
        621,
        639,
        207,
        582,
        156,
        540,
        123,
        108,
        289,
        502,
        723,
        328,
        66,
        102,
        67,
        172,
        346,
        29,
        546,
        100,
        351,
        2,
        459,
        254,
        356,
        676,
        715,
        567,
        47,
        488,
        623,
        171,
        138,
        118,
        400,
        85,
        372,
        735,
        482,
        209,
        264,
        119,
        490,
        448,
        315,
        489,
        449,
        669,
        464,
        162,
        503,
        711,
        141,
        498,
        214,
        34,
        642,
        729,
        425,
        722,
        76,
        112,
        526,
        195,
        317,
        527,
        466,
        88,
        359,
        587,
        651,
        261,
        442,
        589,
        140,
        173,
        749,
        127,
        235,
        709,
        583,
        386,
        33,
        511,
        42,
        322,
        144,
        660,
        644,
        228,
        420,
        558,
        585,
        725,
        634,
        163,
        374,
        60,
        433,
        416,
        699,
        614,
        370,
        496,
        122,
        116,
        25,
        339,
        451,
        661,
        147,
        679,
        710,
        576,
        296,
        477,
        619,
        191,
        360,
        154,
        86,
        472,
        728,
        96,
        691,
        741,
        286,
        134,
        43,
        553,
        667,
        687,
        332,
        41,
        117,
        397,
        321,
        299,
        731,
        747,
        54,
        690,
        107,
        635,
        23,
        654,
        666,
        106,
        178,
        62,
        492,
        371,
        36,
        551,
        409,
        357,
        632,
        247,
        268,
        198,
        284,
        176,
        395,
        338,
        234,
        81,
        137,
        427,
        98,
        310,
        217,
        50,
        458,
        240,
        394,
        253,
        532,
        716,
        132,
        671,
        93,
        330,
        742,
        279,
        267,
        333,
        206,
        450,
        549,
        675,
        507,
        500,
        497,
        196,
        72,
        518,
        706,
        561,
        454,
        51,
        593,
        404,
        444,
        705,
        708,
        220,
        647,
        426,
        301,
        16,
        554,
        113,
        121,
        58,
        692,
        603,
        447,
        550,
        115,
        21,
        441,
        584,
        562,
        4,
        513,
        8,
        188,
        556,
        237,
        230,
        602,
        336,
        193,
        55,
        248,
        620,
        376,
        92,
        126,
        143,
        309,
        298,
        189,
        740,
        204,
        205,
        260,
        465,
        35,
        44,
        246,
        686,
        471,
        531,
        566,
        726,
        439,
        707,
        14,
        515,
        499,
        233,
        94,
        746,
        20,
        308,
        329,
        677,
        165,
        6,
        508,
        177,
        290,
        744,
        331,
        680,
        653,
        393,
        199,
        1,
        443,
        226,
        236,
        294,
        521,
        718,
        190,
        369,
        242,
        380,
        274,
        314,
        481,
        104,
        613,
        26,
        548,
        469,
        545,
        463,
        432,
        219,
        159,
        389,
        278,
        80,
        672,
        487,
        187,
        410,
        79,
        38,
        737,
        9,
        151,
        693,
        504,
        501,
        713,
        547,
        186,
        111,
        252,
        319,
        462,
        665,
        179,
        467,
        599,
        429,
        105,
        216,
        601,
        720,
        435,
        180,
        7,
        595,
        152,
        73,
        362,
        297,
        512,
        231,
        430,
        565,
        597,
        643,
        135,
        663,
        59,
        212,
        428,
        49,
        232,
        626,
        305,
        0,
        646,
        124,
        272,
        257,
        658,
        569,
        17,
        586,
        343,
        280,
        475,
        320,
        384,
        580,
        12,
        697,
        419,
        381,
        53,
        382,
        555,
        559,
        91,
        528,
        678,
        227,
        48,
        114,
        483,
        605,
        698,
        225,
        57,
        505,
        95,
        150,
        373,
        637,
        405,
        495,
        255,
        292,
        516,
        714,
        302,
        640,
        125,
        727,
        412,
        365,
        259,
        45,
        670,
        396,
        131,
        721,
        5,
        215,
        491,
        748,
        402,
        157,
        436,
        590,
        337,
        659,
        592,
        203,
        732,
        364,
        398,
        99,
        89,
        130,
        361,
        423,
        164,
        622,
        101,
        129,
        197,
        218,
        318,
        355,
        281,
        685,
        445,
        514,
        533,
        730,
        345,
        702,
        494,
        52,
        624,
        600,
        387,
        701,
        28,
        689,
        522,
        719,
        468,
        664,
        182,
        401,
        612,
        311,
        473,
        618,
        354,
        170,
        64,
        610,
        581,
        563,
        316,
        166,
        712,
        406,
        349,
        74,
        19,
        61,
        588,
        347,
        724,
        168,
        201,
        142,
        407,
        110,
        520,
        673,
        493,
        221,
        291,
        694,
        615,
        539,
        65,
        136,
        574,
        258,
        250,
        543,
        40,
        535,
        414,
        211,
        229,
        256,
        244,
        743,
        534,
        486,
        358,
        340,
        662,
        275,
        175,
        149,
        71,
        243,
        560,
        638,
        293,
        167,
        249,
        696,
        391,
        287,
        479,
        517,
        245,
        557,
        31,
        681,
        411,
        544,
        383,
        633,
        262,
        307,
        461,
        564,
        575,
        607,
        103,
        648,
        363,
        649,
        438,
        431,
        323,
        536,
        324,
        3,
        276,
        510,
        222,
        83,
        326,
        327,
        421,
        645,
        541,
        300,
        344,
        295,
        202,
        682,
        524,
        304,
        375,
        169,
        606,
        460,
        133,
        578,
        422,
        525,
        238,
        13,
        734,
        194,
        529,
        573,
        629,
        288,
        478,
        591,
        68,
        183,
        579,
        18,
        350,
        56,
        700,
        270,
        630,
        273,
        39,
        24
    ],
    "Global Optimum": 0,
    "Algorithm": "Genetic algorithm",
    "Parameters": {
        "population": 30,
        "offspring": 30,
        "mutation probability": 0.0013333333333333333,
        "crossover probability": 0.9
    },
    "Fitness": 882130,
    "Solution": [
        455,
        379,
        609,
        223,
        161,
        385,
        631,
        158,
        181,
        265,
        392,
        596,
        695,
        453,
        69,
        283,
        738,
        683,
        70,
        241,
        200,
        174,
        415,
        84,
        335,
        608,
        282,
        739,
        668,
        263,
        509,
        542,
        192,
        148,
        46,
        656,
        348,
        424,
        571,
        368,
        334,
        684,
        628,
        437,
        399,
        90,
        452,
        312,
        594,
        128,
        552,
        184,
        480,
        11,
        269,
        352,
        251,
        313,
        63,
        572,
        353,
        641,
        717,
        519,
        342,
        474,
        271,
        598,
        446,
        704,
        657,
        703,
        625,
        77,
        266,
        652,
        538,
        97,
        745,
        210,
        408,
        37,
        617,
        484,
        27,
        611,
        139,
        109,
        30,
        306,
        688,
        366,
        185,
        377,
        153,
        457,
        537,
        145,
        390,
        32,
        277,
        224,
        655,
        78,
        570,
        440,
        378,
        476,
        616,
        736,
        146,
        82,
        417,
        413,
        604,
        434,
        303,
        568,
        733,
        506,
        530,
        636,
        674,
        239,
        22,
        650,
        325,
        285,
        470,
        75,
        10,
        456,
        120,
        367,
        15,
        155,
        485,
        403,
        87,
        627,
        388,
        418,
        341,
        577,
        523,
        208,
        160,
        213,
        621,
        639,
        207,
        582,
        156,
        540,
        123,
        108,
        289,
        502,
        723,
        328,
        66,
        102,
        67,
        172,
        346,
        29,
        546,
        100,
        351,
        2,
        459,
        254,
        356,
        676,
        715,
        567,
        47,
        488,
        623,
        171,
        138,
        118,
        400,
        85,
        372,
        735,
        482,
        209,
        264,
        119,
        490,
        448,
        315,
        489,
        449,
        669,
        464,
        162,
        503,
        711,
        141,
        498,
        214,
        34,
        642,
        729,
        425,
        722,
        76,
        112,
        526,
        195,
        317,
        527,
        466,
        88,
        359,
        587,
        651,
        261,
        442,
        589,
        140,
        173,
        749,
        127,
        235,
        709,
        583,
        386,
        33,
        511,
        42,
        322,
        144,
        660,
        644,
        228,
        420,
        558,
        585,
        725,
        634,
        163,
        374,
        60,
        433,
        416,
        699,
        614,
        370,
        496,
        122,
        116,
        25,
        339,
        451,
        661,
        147,
        679,
        710,
        576,
        296,
        477,
        619,
        191,
        360,
        154,
        86,
        472,
        728,
        96,
        691,
        741,
        286,
        134,
        43,
        553,
        667,
        687,
        332,
        41,
        117,
        397,
        321,
        299,
        731,
        747,
        54,
        690,
        107,
        635,
        23,
        654,
        666,
        106,
        178,
        62,
        492,
        371,
        36,
        551,
        409,
        357,
        632,
        247,
        268,
        198,
        284,
        176,
        395,
        338,
        234,
        81,
        137,
        427,
        98,
        310,
        217,
        50,
        458,
        240,
        394,
        253,
        532,
        716,
        132,
        671,
        93,
        330,
        742,
        279,
        267,
        333,
        206,
        450,
        549,
        675,
        507,
        500,
        497,
        196,
        72,
        518,
        706,
        561,
        454,
        51,
        593,
        404,
        444,
        705,
        708,
        220,
        647,
        426,
        301,
        16,
        554,
        113,
        121,
        58,
        692,
        603,
        447,
        550,
        115,
        21,
        441,
        584,
        562,
        4,
        513,
        8,
        188,
        556,
        237,
        230,
        602,
        336,
        193,
        55,
        248,
        620,
        376,
        92,
        126,
        143,
        309,
        298,
        189,
        740,
        204,
        205,
        260,
        465,
        35,
        44,
        246,
        686,
        471,
        531,
        566,
        726,
        439,
        707,
        14,
        515,
        499,
        233,
        94,
        746,
        20,
        308,
        329,
        677,
        165,
        6,
        508,
        177,
        290,
        744,
        331,
        680,
        653,
        393,
        199,
        1,
        443,
        226,
        236,
        294,
        521,
        718,
        190,
        369,
        242,
        380,
        274,
        314,
        481,
        104,
        613,
        26,
        548,
        469,
        545,
        463,
        432,
        219,
        159,
        389,
        278,
        80,
        672,
        487,
        187,
        410,
        79,
        38,
        737,
        9,
        151,
        693,
        504,
        501,
        713,
        547,
        186,
        111,
        252,
        319,
        462,
        665,
        179,
        467,
        599,
        429,
        105,
        216,
        601,
        720,
        435,
        180,
        7,
        595,
        152,
        73,
        362,
        297,
        512,
        231,
        430,
        565,
        597,
        643,
        135,
        663,
        59,
        212,
        428,
        49,
        232,
        626,
        305,
        0,
        646,
        124,
        272,
        257,
        658,
        569,
        17,
        586,
        343,
        280,
        475,
        320,
        384,
        580,
        12,
        697,
        419,
        381,
        53,
        382,
        555,
        559,
        91,
        528,
        678,
        227,
        48,
        114,
        483,
        605,
        698,
        225,
        57,
        505,
        95,
        150,
        373,
        637,
        405,
        495,
        255,
        292,
        516,
        714,
        302,
        640,
        125,
        727,
        412,
        365,
        259,
        45,
        670,
        396,
        131,
        721,
        5,
        215,
        491,
        748,
        402,
        157,
        436,
        590,
        337,
        659,
        592,
        203,
        732,
        364,
        398,
        99,
        89,
        130,
        361,
        423,
        164,
        622,
        101,
        129,
        197,
        218,
        318,
        355,
        281,
        685,
        445,
        514,
        533,
        730,
        345,
        702,
        494,
        52,
        624,
        600,
        387,
        701,
        28,
        689,
        522,
        719,
        468,
        664,
        182,
        401,
        612,
        311,
        473,
        618,
        354,
        170,
        64,
        610,
        581,
        563,
        316,
        166,
        712,
        406,
        349,
        74,
        19,
        61,
        588,
        347,
        724,
        168,
        201,
        142,
        407,
        110,
        520,
        673,
        493,
        221,
        291,
        694,
        615,
        539,
        65,
        136,
        574,
        258,
        250,
        543,
        40,
        535,
        414,
        211,
        229,
        256,
        244,
        743,
        534,
        486,
        358,
        340,
        662,
        275,
        175,
        149,
        71,
        243,
        560,
        638,
        293,
        167,
        249,
        696,
        391,
        287,
        479,
        517,
        245,
        557,
        31,
        681,
        411,
        544,
        383,
        633,
        262,
        307,
        461,
        564,
        575,
        607,
        103,
        648,
        363,
        649,
        438,
        431,
        323,
        536,
        324,
        3,
        276,
        510,
        222,
        83,
        326,
        327,
        421,
        645,
        541,
        300,
        344,
        295,
        202,
        682,
        524,
        304,
        375,
        169,
        606,
        460,
        133,
        578,
        422,
        525,
        238,
        13,
        734,
        194,
        529,
        573,
        629,
        288,
        478,
        591,
        68,
        183,
        579,
        18,
        350,
        56,
        700,
        270,
        630,
        273,
        39,
        24
    ],
    "Nb of functions evaluations": 400020,
    "Computational time in seconds": 3172.2967183589935,
    "Stopping criterion in evaluations": 400000
}